p cnf 432 1119
1 0
-2 0
-3 0
-4 0
-5 0
-6 0
-7 0
-8 0
-9 0
-10 0
-11 0
1 -12 0
12 -1 0
13 14 0
15 14 0
16 14 0
17 14 0
18 14 0
19 14 0
20 14 0
-21 0
-2 14 -22 0
2 -14 -22 0
22 -14 -2 0
2 14 22 0
-22 0
15 23 0
16 23 0
17 23 0
18 23 0
19 23 0
20 23 0
-24 0
-25 23 -26 0
25 -23 -26 0
26 -23 -25 0
25 23 26 0
-26 0
16 27 0
17 27 0
18 27 0
19 27 0
20 27 0
-28 0
-29 27 -30 0
29 -27 -30 0
30 -27 -29 0
29 27 30 0
-30 0
-31 27 -32 0
31 -27 -32 0
32 -27 -31 0
31 27 32 0
-32 0
-33 27 -34 0
33 -27 -34 0
34 -27 -33 0
33 27 34 0
-34 0
-35 27 -36 0
35 -27 -36 0
36 -27 -35 0
35 27 36 0
-36 0
-37 27 -38 0
37 -27 -38 0
38 -27 -37 0
37 27 38 0
-38 0
39 40 0
41 40 0
42 40 0
43 40 0
44 40 0
45 40 0
46 40 0
47 40 0
48 40 0
49 40 0
50 40 0
51 40 0
-52 0
-3 40 -53 0
3 -40 -53 0
53 -40 -3 0
3 40 53 0
-53 0
41 54 0
42 54 0
43 54 0
44 54 0
45 54 0
46 54 0
47 54 0
48 54 0
49 54 0
50 54 0
51 54 0
-55 0
-56 54 -57 0
56 -54 -57 0
57 -54 -56 0
56 54 57 0
-57 0
42 58 0
43 58 0
44 58 0
45 58 0
46 58 0
47 58 0
48 58 0
49 58 0
50 58 0
51 58 0
-59 0
-60 58 -61 0
60 -58 -61 0
61 -58 -60 0
60 58 61 0
-61 0
43 62 0
44 62 0
45 62 0
46 62 0
47 62 0
48 62 0
49 62 0
50 62 0
51 62 0
-63 0
-64 62 -65 0
64 -62 -65 0
65 -62 -64 0
64 62 65 0
-65 0
44 66 0
45 66 0
46 66 0
47 66 0
48 66 0
49 66 0
50 66 0
51 66 0
-67 0
-68 66 -69 0
68 -66 -69 0
69 -66 -68 0
68 66 69 0
-69 0
45 70 0
46 70 0
47 70 0
48 70 0
49 70 0
50 70 0
51 70 0
-71 0
-72 70 -73 0
72 -70 -73 0
73 -70 -72 0
72 70 73 0
-73 0
46 74 0
47 74 0
48 74 0
49 74 0
50 74 0
51 74 0
-75 0
-76 74 -77 0
76 -74 -77 0
77 -74 -76 0
76 74 77 0
-77 0
-78 74 -79 0
78 -74 -79 0
79 -74 -78 0
78 74 79 0
-79 0
-80 74 -81 0
80 -74 -81 0
81 -74 -80 0
80 74 81 0
-81 0
-82 74 -83 0
82 -74 -83 0
83 -74 -82 0
82 74 83 0
-83 0
-84 74 -85 0
84 -74 -85 0
85 -74 -84 0
84 74 85 0
-85 0
-86 74 -87 0
86 -74 -87 0
87 -74 -86 0
86 74 87 0
-87 0
88 89 0
90 89 0
91 89 0
92 89 0
93 89 0
94 89 0
95 89 0
96 89 0
97 89 0
98 89 0
99 89 0
-100 0
-4 89 -101 0
4 -89 -101 0
101 -89 -4 0
4 89 101 0
-101 0
90 102 0
91 102 0
92 102 0
93 102 0
94 102 0
95 102 0
96 102 0
97 102 0
98 102 0
99 102 0
-103 0
-104 102 -105 0
104 -102 -105 0
105 -102 -104 0
104 102 105 0
-105 0
91 106 0
92 106 0
93 106 0
94 106 0
95 106 0
96 106 0
97 106 0
98 106 0
99 106 0
-107 0
-108 106 -109 0
108 -106 -109 0
109 -106 -108 0
108 106 109 0
-109 0
92 110 0
93 110 0
94 110 0
95 110 0
96 110 0
97 110 0
98 110 0
99 110 0
-111 0
-112 110 -113 0
112 -110 -113 0
113 -110 -112 0
112 110 113 0
-113 0
93 114 0
94 114 0
95 114 0
96 114 0
97 114 0
98 114 0
99 114 0
-115 0
-116 114 -117 0
116 -114 -117 0
117 -114 -116 0
116 114 117 0
-117 0
94 118 0
95 118 0
96 118 0
97 118 0
98 118 0
99 118 0
-119 0
-120 118 -121 0
120 -118 -121 0
121 -118 -120 0
120 118 121 0
-121 0
95 122 0
96 122 0
97 122 0
98 122 0
99 122 0
-123 0
-124 122 -125 0
124 -122 -125 0
125 -122 -124 0
124 122 125 0
-125 0
-126 122 -127 0
126 -122 -127 0
127 -122 -126 0
126 122 127 0
-127 0
-128 122 -129 0
128 -122 -129 0
129 -122 -128 0
128 122 129 0
-129 0
-130 122 -131 0
130 -122 -131 0
131 -122 -130 0
130 122 131 0
-131 0
-132 122 -133 0
132 -122 -133 0
133 -122 -132 0
132 122 133 0
-133 0
13 134 0
15 134 0
16 134 0
17 134 0
18 134 0
19 134 0
20 134 0
135 134 0
-136 0
-5 134 -137 0
5 -134 -137 0
137 -134 -5 0
5 134 137 0
-137 0
16 138 0
17 138 0
18 138 0
19 138 0
20 138 0
139 138 0
140 138 0
141 138 0
142 138 0
-143 0
-6 138 -144 0
6 -138 -144 0
144 -138 -6 0
6 138 144 0
-144 0
16 145 0
17 145 0
18 145 0
19 145 0
20 145 0
140 145 0
141 145 0
142 145 0
-146 0
-147 145 -148 0
147 -145 -148 0
148 -145 -147 0
147 145 148 0
-148 0
16 149 0
17 149 0
18 149 0
19 149 0
20 149 0
141 149 0
142 149 0
-150 0
-151 149 -152 0
151 -149 -152 0
152 -149 -151 0
151 149 152 0
-152 0
16 153 0
17 153 0
18 153 0
19 153 0
20 153 0
142 153 0
-154 0
-155 153 -156 0
155 -153 -156 0
156 -153 -155 0
155 153 156 0
-156 0
157 158 0
159 158 0
160 158 0
161 158 0
162 158 0
163 158 0
-164 0
-7 158 -165 0
7 -158 -165 0
165 -158 -7 0
7 158 165 0
-165 0
159 166 0
160 166 0
161 166 0
162 166 0
163 166 0
-167 0
-168 166 -169 0
168 -166 -169 0
169 -166 -168 0
168 166 169 0
-169 0
-170 166 -171 0
170 -166 -171 0
171 -166 -170 0
170 166 171 0
-171 0
-172 166 -173 0
172 -166 -173 0
173 -166 -172 0
172 166 173 0
-173 0
-174 166 -175 0
174 -166 -175 0
175 -166 -174 0
174 166 175 0
-175 0
-176 166 -177 0
176 -166 -177 0
177 -166 -176 0
176 166 177 0
-177 0
178 179 0
180 179 0
181 179 0
182 179 0
183 179 0
184 179 0
185 179 0
-186 0
-8 179 -187 0
8 -179 -187 0
187 -179 -8 0
8 179 187 0
-187 0
180 188 0
181 188 0
182 188 0
183 188 0
184 188 0
185 188 0
-189 0
-190 188 -191 0
190 -188 -191 0
191 -188 -190 0
190 188 191 0
-191 0
181 192 0
182 192 0
183 192 0
184 192 0
185 192 0
-193 0
-194 192 -195 0
194 -192 -195 0
195 -192 -194 0
194 192 195 0
-195 0
182 196 0
183 196 0
184 196 0
185 196 0
-197 0
-198 196 -199 0
198 -196 -199 0
199 -196 -198 0
198 196 199 0
-199 0
-200 196 -201 0
200 -196 -201 0
201 -196 -200 0
200 196 201 0
-201 0
-202 196 -203 0
202 -196 -203 0
203 -196 -202 0
202 196 203 0
-203 0
-204 196 -205 0
204 -196 -205 0
205 -196 -204 0
204 196 205 0
-205 0
182 206 0
183 206 0
184 206 0
185 206 0
207 206 0
208 206 0
209 206 0
-210 0
-9 206 -211 0
9 -206 -211 0
211 -206 -9 0
9 206 211 0
-211 0
182 212 0
183 212 0
184 212 0
185 212 0
208 212 0
209 212 0
-213 0
-214 212 -215 0
214 -212 -215 0
215 -212 -214 0
214 212 215 0
-215 0
182 216 0
183 216 0
184 216 0
185 216 0
209 216 0
-217 0
-218 216 -219 0
218 -216 -219 0
219 -216 -218 0
218 216 219 0
-219 0
182 220 0
183 220 0
184 220 0
185 220 0
221 220 0
222 220 0
223 220 0
224 220 0
225 220 0
-226 0
-10 220 -227 0
10 -220 -227 0
227 -220 -10 0
10 220 227 0
-227 0
182 228 0
183 228 0
184 228 0
185 228 0
222 228 0
223 228 0
224 228 0
225 228 0
-229 0
-230 228 -231 0
230 -228 -231 0
231 -228 -230 0
230 228 231 0
-231 0
182 232 0
183 232 0
184 232 0
185 232 0
223 232 0
224 232 0
225 232 0
-233 0
-234 232 -235 0
234 -232 -235 0
235 -232 -234 0
234 232 235 0
-235 0
182 236 0
183 236 0
184 236 0
185 236 0
224 236 0
225 236 0
-237 0
-238 236 -239 0
238 -236 -239 0
239 -236 -238 0
238 236 239 0
-239 0
182 240 0
183 240 0
184 240 0
185 240 0
225 240 0
-241 0
-242 240 -243 0
242 -240 -243 0
243 -240 -242 0
242 240 243 0
-243 0
244 245 0
246 245 0
247 245 0
248 245 0
249 245 0
250 245 0
251 245 0
252 245 0
253 245 0
254 245 0
255 245 0
-256 0
-11 245 -257 0
11 -245 -257 0
257 -245 -11 0
11 245 257 0
-257 0
246 258 0
247 258 0
248 258 0
249 258 0
250 258 0
251 258 0
252 258 0
253 258 0
254 258 0
255 258 0
-259 0
-260 258 -261 0
260 -258 -261 0
261 -258 -260 0
260 258 261 0
-261 0
247 262 0
248 262 0
249 262 0
250 262 0
251 262 0
252 262 0
253 262 0
254 262 0
255 262 0
-263 0
-264 262 -265 0
264 -262 -265 0
265 -262 -264 0
264 262 265 0
-265 0
248 266 0
249 266 0
250 266 0
251 266 0
252 266 0
253 266 0
254 266 0
255 266 0
-267 0
-268 266 -269 0
268 -266 -269 0
269 -266 -268 0
268 266 269 0
-269 0
249 270 0
250 270 0
251 270 0
252 270 0
253 270 0
254 270 0
255 270 0
-271 0
-272 270 -273 0
272 -270 -273 0
273 -270 -272 0
272 270 273 0
-273 0
250 274 0
251 274 0
252 274 0
253 274 0
254 274 0
255 274 0
-275 0
-276 274 -277 0
276 -274 -277 0
277 -274 -276 0
276 274 277 0
-277 0
-278 274 -279 0
278 -274 -279 0
279 -274 -278 0
278 274 279 0
-279 0
-280 274 -281 0
280 -274 -281 0
281 -274 -280 0
280 274 281 0
-281 0
-282 274 -283 0
282 -274 -283 0
283 -274 -282 0
282 274 283 0
-283 0
-284 274 -285 0
284 -274 -285 0
285 -274 -284 0
284 274 285 0
-285 0
-286 274 -287 0
286 -274 -287 0
287 -274 -286 0
286 274 287 0
-287 0
-12 288 -289 0
12 -288 -289 0
-12 -288 289 0
12 288 289 0
-289 0
-13 290 -291 0
13 -290 -291 0
-13 -290 291 0
13 290 291 0
-291 0
-15 292 -293 0
15 -292 -293 0
-15 -292 293 0
15 292 293 0
-293 0
-16 294 -295 0
16 -294 -295 0
-16 -294 295 0
16 294 295 0
-295 0
-17 296 -297 0
17 -296 -297 0
-17 -296 297 0
17 296 297 0
-297 0
-18 298 -299 0
18 -298 -299 0
-18 -298 299 0
18 298 299 0
-299 0
-19 300 -301 0
19 -300 -301 0
-19 -300 301 0
19 300 301 0
-301 0
-20 302 -303 0
20 -302 -303 0
-20 -302 303 0
20 302 303 0
-303 0
-39 304 -305 0
39 -304 -305 0
-39 -304 305 0
39 304 305 0
-305 0
-41 306 -307 0
41 -306 -307 0
-41 -306 307 0
41 306 307 0
-307 0
-42 308 -309 0
42 -308 -309 0
-42 -308 309 0
42 308 309 0
-309 0
-43 310 -311 0
43 -310 -311 0
-43 -310 311 0
43 310 311 0
-311 0
-44 312 -313 0
44 -312 -313 0
-44 -312 313 0
44 312 313 0
-313 0
-45 314 -315 0
45 -314 -315 0
-45 -314 315 0
45 314 315 0
-315 0
-46 316 -317 0
46 -316 -317 0
-46 -316 317 0
46 316 317 0
-317 0
-47 318 -319 0
47 -318 -319 0
-47 -318 319 0
47 318 319 0
-319 0
-48 320 -321 0
48 -320 -321 0
-48 -320 321 0
48 320 321 0
-321 0
-49 322 -323 0
49 -322 -323 0
-49 -322 323 0
49 322 323 0
-323 0
-50 324 -325 0
50 -324 -325 0
-50 -324 325 0
50 324 325 0
-325 0
-51 326 -327 0
51 -326 -327 0
-51 -326 327 0
51 326 327 0
-327 0
-88 328 -329 0
88 -328 -329 0
-88 -328 329 0
88 328 329 0
-329 0
-90 330 -331 0
90 -330 -331 0
-90 -330 331 0
90 330 331 0
-331 0
-91 332 -333 0
91 -332 -333 0
-91 -332 333 0
91 332 333 0
-333 0
-92 334 -335 0
92 -334 -335 0
-92 -334 335 0
92 334 335 0
-335 0
-93 336 -337 0
93 -336 -337 0
-93 -336 337 0
93 336 337 0
-337 0
-94 338 -339 0
94 -338 -339 0
-94 -338 339 0
94 338 339 0
-339 0
-95 340 -341 0
95 -340 -341 0
-95 -340 341 0
95 340 341 0
-341 0
-96 342 -343 0
96 -342 -343 0
-96 -342 343 0
96 342 343 0
-343 0
-97 344 -345 0
97 -344 -345 0
-97 -344 345 0
97 344 345 0
-345 0
-98 346 -347 0
98 -346 -347 0
-98 -346 347 0
98 346 347 0
-347 0
-99 348 -349 0
99 -348 -349 0
-99 -348 349 0
99 348 349 0
-349 0
-135 350 -351 0
135 -350 -351 0
-135 -350 351 0
135 350 351 0
-351 0
-139 352 -353 0
139 -352 -353 0
-139 -352 353 0
139 352 353 0
-353 0
-140 354 -355 0
140 -354 -355 0
-140 -354 355 0
140 354 355 0
-355 0
-141 356 -357 0
141 -356 -357 0
-141 -356 357 0
141 356 357 0
-357 0
-142 358 -359 0
142 -358 -359 0
-142 -358 359 0
142 358 359 0
-359 0
-157 360 -361 0
157 -360 -361 0
-157 -360 361 0
157 360 361 0
-361 0
-159 362 -363 0
159 -362 -363 0
-159 -362 363 0
159 362 363 0
-363 0
-160 364 -365 0
160 -364 -365 0
-160 -364 365 0
160 364 365 0
-365 0
-161 366 -367 0
161 -366 -367 0
-161 -366 367 0
161 366 367 0
-367 0
-162 368 -369 0
162 -368 -369 0
-162 -368 369 0
162 368 369 0
-369 0
-163 370 -371 0
163 -370 -371 0
-163 -370 371 0
163 370 371 0
-371 0
-178 372 -373 0
178 -372 -373 0
-178 -372 373 0
178 372 373 0
-373 0
-180 374 -375 0
180 -374 -375 0
-180 -374 375 0
180 374 375 0
-375 0
-181 376 -377 0
181 -376 -377 0
-181 -376 377 0
181 376 377 0
-377 0
-182 378 -379 0
182 -378 -379 0
-182 -378 379 0
182 378 379 0
-379 0
-183 380 -381 0
183 -380 -381 0
-183 -380 381 0
183 380 381 0
-381 0
-184 382 -383 0
184 -382 -383 0
-184 -382 383 0
184 382 383 0
-383 0
-185 384 -385 0
185 -384 -385 0
-185 -384 385 0
185 384 385 0
-385 0
-207 386 -387 0
207 -386 -387 0
-207 -386 387 0
207 386 387 0
-387 0
-208 388 -389 0
208 -388 -389 0
-208 -388 389 0
208 388 389 0
-389 0
-209 390 -391 0
209 -390 -391 0
-209 -390 391 0
209 390 391 0
-391 0
-221 392 -393 0
221 -392 -393 0
-221 -392 393 0
221 392 393 0
-393 0
-222 394 -395 0
222 -394 -395 0
-222 -394 395 0
222 394 395 0
-395 0
-223 396 -397 0
223 -396 -397 0
-223 -396 397 0
223 396 397 0
-397 0
-224 398 -399 0
224 -398 -399 0
-224 -398 399 0
224 398 399 0
-399 0
-225 400 -401 0
225 -400 -401 0
-225 -400 401 0
225 400 401 0
-401 0
-244 402 -403 0
244 -402 -403 0
-244 -402 403 0
244 402 403 0
-403 0
-246 404 -405 0
246 -404 -405 0
-246 -404 405 0
246 404 405 0
-405 0
-247 406 -407 0
247 -406 -407 0
-247 -406 407 0
247 406 407 0
-407 0
-248 408 -409 0
248 -408 -409 0
-248 -408 409 0
248 408 409 0
-409 0
-249 410 -411 0
249 -410 -411 0
-249 -410 411 0
249 410 411 0
-411 0
-250 412 -413 0
250 -412 -413 0
-250 -412 413 0
250 412 413 0
-413 0
-251 414 -415 0
251 -414 -415 0
-251 -414 415 0
251 414 415 0
-415 0
-252 416 -417 0
252 -416 -417 0
-252 -416 417 0
252 416 417 0
-417 0
-253 418 -419 0
253 -418 -419 0
-253 -418 419 0
253 418 419 0
-419 0
-254 420 -421 0
254 -420 -421 0
-254 -420 421 0
254 420 421 0
-421 0
-255 422 -423 0
255 -422 -423 0
-255 -422 423 0
255 422 423 0
-423 0
-424 -288 0
290 -424 0
292 -424 0
-424 -294 0
-424 -296 0
-424 -298 0
300 -424 0
-424 -302 0
-424 -304 0
-424 -306 0
308 -424 0
310 -424 0
-424 -312 0
314 -424 0
316 -424 0
-424 -318 0
320 -424 0
322 -424 0
-424 -324 0
-424 -326 0
-424 -328 0
-424 -330 0
332 -424 0
-424 -334 0
-424 -336 0
338 -424 0
340 -424 0
-424 -342 0
344 -424 0
-424 -346 0
-424 -348 0
350 -424 0
-424 -352 0
-424 -354 0
356 -424 0
358 -424 0
360 -424 0
362 -424 0
364 -424 0
366 -424 0
368 -424 0
-424 -370 0
372 -424 0
-424 -374 0
376 -424 0
-424 -378 0
380 -424 0
382 -424 0
-424 -384 0
386 -424 0
388 -424 0
390 -424 0
392 -424 0
394 -424 0
396 -424 0
398 -424 0
-424 -400 0
402 -424 0
404 -424 0
406 -424 0
408 -424 0
-424 -410 0
-424 -412 0
414 -424 0
-424 -416 0
418 -424 0
420 -424 0
422 -424 0
424 0
-425 0
-426 0
-427 0
-428 0
-429 0
-430 0
-431 0
-432 0
